Route #1: 14 110 105 74
Route #2: 102 87 47 23 144 41 88
Route #3: 83 8
Route #4: 141 5 15 149
Route #5: 9 29
Route #6: 17 12
Route #7: 129 49 145 113 123 136 109 1 89 66 39
Route #8: 84 112 121 55 152 19 133 46 116 38 75
Route #9: 21
Route #10: 33 63 68 138 16 143
Route #11: 48 77 135 81 114 18 76 85 50 98 148 45 117
Route #12: 108 31 126 51 122 59 3 10
Route #13: 11 7 36
Route #14: 90 128 73 142 54 44 52 93 2 146 130
Route #15: 53 57 124 104 64 82 26 58 69 71
Route #16: 13 30 28 60
Route #17: 34 107 78 61 80 24 79 67 150 92 99 86 40 139
Route #18: 95 25 42
Route #19: 147 65 131 111 125 106 35 32 27 62 101 120
Route #20: 6 4 20
Route #21: 37 103 72 127 97 118 151 43 56 132 96 22 137 100 70 91 119 140 94 134 115
Cost 19191.000000